
        $ From http://www.csplib.org/Problems/prob009/data/helmut.pdf
        $ Problem number 59
        $ Sequence length : 25
        language ESSENCE' 1.0
        letting sizemaster be 264
        letting sizes be sequence(3,7,8,12,16,18,19,20,22,24,26,31,34,37,38,40,42,53,54,61,64,69,70,130,134)
        